% Instancia 5: Insatisfactible

% Formato de entrada problema Planta de Energía:

% Parámetros:
% Nc:       Número de centrales eléctricas. Entero >= 0.
% S:        Número de clientes. Entero >= 0.
% n:        Número de días para satisfacer demanda diaria de clientes. Entero >= 0.
% CaP(i):   Capacidad de producción diaria en megawatts (MW) por central eléctrica con i={0, .., Nc}. Flotante >= 0.
% CoP(i):   Costo de producción de un MW por central eléctrica con i={0, .., Nc}. Flotante >= 0.
% d(s,i):   Demanda diaria en MW de un cliente s={0, .., S} para un día i={0, .., n}. Flotantes >= 0.

Nc = 3;
S = 4;
n = 6;
CaP = [800.0, 450.0, 320.0];
CoP = [310.0, 250.0, 620.0];
d = array2d (1..S, 1..n,
     [ % Supera la capacidad diaría de todas las centrales en día 1
      350.0, 110.0, 180.0, 210.0, 110.0, 200.0, % Cliente1 [Día1, Día2, Día3, Día4, Día5]
      820.0, 210.0, 320.0, 390.0, 210.0, 100.0, % Cliente2 ..
      100.0, 115.0, 180.0, 300.0, 130.0, 110.0, % Cliente3 ..
      400.0, 145.0, 400.0, 320.0, 510.0, 200.0  % Cliente4 ..
     ]
    );
